11
0 45 80 43 61 93 43 52 44 4 15 
60 0 58 16 83 67 47 21 21 74 62 
41 1 0 18 74 48 46 39 49 48 8 
64 44 100 0 18 31 45 70 53 56 20 
94 85 97 46 0 82 41 17 18 87 49 
77 44 37 63 14 0 70 61 71 76 12 
73 52 67 68 6 22 0 52 83 14 53 
70 19 53 13 41 30 61 0 36 66 5 
75 50 37 32 19 83 60 65 0 91 38 
81 47 88 100 41 85 86 38 22 0 43 
42 59 38 4 44 29 72 21 5 39 0 
